J = 20;
M = 10;

machine = array2d(JOB,TASK, [
 
    7, 6, 9, 8, 10, 2, 1, 4, 3, 5,  
    4, 1, 3, 5, 2, 9, 6, 8, 10, 7, 
    7, 8, 10, 6, 9, 2, 3, 5, 1, 4,
    4, 5, 2, 3, 1, 9, 10, 7, 8, 6, 
    3, 1, 2, 4, 5, 8, 6, 7, 9, 10, 
    5, 2, 4, 1, 3, 10, 7, 9, 6, 8,
    4, 1, 3, 5, 2, 9, 6, 8, 10, 7, 
    7, 8, 10, 6, 9, 2, 3, 5, 1, 4,
    4, 5, 2, 3, 1, 9, 10, 7, 8, 6,
    3, 2, 5, 4, 1, 8, 7, 10, 9, 6,
    6, 10, 8, 1, 7, 9, 5, 3, 4, 2,  
    5, 4, 1, 3, 2, 10, 9, 6, 8, 7,
    8, 6, 7, 9, 10, 3, 1, 2, 4, 5, 
    10, 7, 9, 6, 8, 5, 2, 4, 1, 3, 
    4, 1, 9, 6, 8, 10, 3, 5, 2, 7,
    4, 5, 2, 3, 1, 9, 10, 7, 8, 6,  
    5, 2, 4, 1, 3, 10, 7, 9, 6, 8,
    1, 6, 8, 10, 7, 4, 9, 3, 5, 2, 
    9, 10, 7, 8, 6, 5, 4, 2, 3, 1, 
    4, 3, 5, 2, 1, 9, 8, 10, 7, 6
]);

duration = array2d(JOB,MACH, [
8, 3, 6, 2, 3, 28, 3, 6, 22, 3,
3, 5, 9, 5, 14, 3, 5, 29, 5, 4,
97, 66, 8, 6, 47, 2, 5, 1, 3, 7,
52, 5, 1, 3, 7, 2, 35, 21, 3, 7,
5, 4, 7, 9, 26, 5, 34, 27, 9, 6,
6, 7, 28, 8, 9, 36, 7, 8, 8, 9,
33, 5, 4, 2, 18, 33, 25, 14, 2, 8,
1, 5, 2, 4, 9, 1, 5, 92, 24, 9,
44, 9, 4, 3, 21, 4, 29, 4, 3, 1,
8, 7, 24, 47, 9, 8, 37, 24, 7, 9,
8, 3, 6, 2, 73, 8, 23, 6, 2, 3,
3, 5, 39, 5, 34, 3, 5, 9, 5, 4,
7, 6, 8, 6, 7, 2, 5, 1, 3, 7,
12, 5, 21, 3, 7, 2, 5, 1, 3, 7,
5, 4, 37, 9, 6, 35, 4, 7, 9, 6,
6, 27, 8, 8, 9, 6, 7, 28, 8, 9,
23, 5, 4, 2, 8, 3, 5, 4, 2, 8,
1, 5, 2, 24, 9, 1, 5, 2, 34, 9,
14, 9, 4, 3, 1, 4, 9, 4, 33, 1,
8, 7, 4, 17, 9, 8, 27, 14, 7, 9
]);
